
Gurobi 11.0.3 (linux64) logging started Tue 19 Nov 2024 12:11:12 AM CST

Set parameter LogFile to value "/home/dlcole3/graph_abstraction/hierarchical_graphs/git_storage/CS1/HP_low_reserves/gurobi_logs/serial/logfile_ST24_4.log"

Gurobi 11.0.3 (linux64) logging started Tue 19 Nov 2024 12:12:49 AM CST

Set parameter LogFile to value "/home/dlcole3/graph_abstraction/hierarchical_graphs/git_storage/CS1/HP_low_reserves/gurobi_logs/serial/logfile_ST24_4.log"
Gurobi Optimizer version 11.0.3 build v11.0.3rc0 (linux64 - "Ubuntu 18.04.3 LTS")

CPU model: Intel(R) Xeon(R) CPU E5-2698 v4 @ 2.20GHz, instruction set [SSE2|AVX|AVX2]
Thread count: 40 physical cores, 80 logical processors, using up to 20 threads

Optimize a model with 29168 rows, 50688 columns and 136175 nonzeros
Model fingerprint: 0x4e204859
Variable types: 46944 continuous, 3744 integer (3744 binary)
Coefficient statistics:
  Matrix range     [6e-01, 2e+04]
  Objective range  [2e+00, 2e+04]
  Bounds range     [5e-02, 2e+05]
  RHS range        [8e-03, 7e+03]
Presolve removed 14247 rows and 38812 columns
Presolve time: 0.38s
Presolved: 14921 rows, 11876 columns, 63385 nonzeros
Variable types: 8894 continuous, 2982 integer (2982 binary)
Found heuristic solution: objective 175915.33166
Found heuristic solution: objective 168547.08250
Found heuristic solution: objective 141352.27518

Root relaxation: objective 4.103652e+04, 8291 iterations, 0.42 seconds (0.30 work units)

    Nodes    |    Current Node    |     Objective Bounds      |     Work
 Expl Unexpl |  Obj  Depth IntInf | Incumbent    BestBd   Gap | It/Node Time

     0     0 41036.5173    0   24 141352.275 41036.5173  71.0%     -    1s
H    0     0                    141352.27488 41036.5173  71.0%     -    1s
H    0     0                    43814.910401 41036.5173  6.34%     -    1s
H    0     0                    43814.910304 41041.3503  6.33%     -    1s
     0     0 41041.3503    0   24 43814.9103 41041.3503  6.33%     -    2s
     0     0 41041.3503    0   14 43814.9103 41041.3503  6.33%     -    2s
     0     0 41255.0965    0   14 43814.9103 41255.0965  5.84%     -    3s
H    0     0                    43755.628777 41255.0965  5.71%     -    3s
     0     2 41255.0965    0   14 43755.6288 41255.0965  5.71%     -    3s
H   40    49                    43189.586425 41533.6943  3.83%  65.3    4s
H   91    78                    43189.585702 41534.1152  3.83%  37.4    4s
H  101    78                    42878.924979 41534.1152  3.14%  35.4    4s
H  186   119                    42803.072603 41534.1152  2.96%  22.9    4s
   267   135 41760.8783   14   23 42803.0726 41534.1152  2.96%  18.7    5s
H  279   135                    42276.679325 41534.1152  1.76%  18.0    5s
H  349   105                    42271.345963 41543.2923  1.72%  17.3    5s
H  359   105                    42260.693787 41543.2923  1.70%  17.2    5s
H  475   128                    42167.180360 41544.7902  1.48%  15.0    6s
H  994   170                    42167.180349 42034.8756  0.31%  11.5    7s
H 1001   170                    42167.180235 42034.8756  0.31%  11.5    7s
H 1019   170                    42167.180028 42034.8756  0.31%  11.5    7s

Explored 1639 nodes (32048 simplex iterations) in 7.73 seconds (5.83 work units)
Thread count was 20 (of 80 available processors)

Solution count 10: 42167.2 42167.2 42260.7 ... 43814.9

Optimal solution found (tolerance 3.00e-03)
Best objective 4.216718002574e+04, best bound 4.206279118650e+04, gap 0.2476%

User-callback calls 5594, time in user-callback 0.00 sec
